# Solution for model r10_t18_m5_7 Batch Number: 1
# Finished Task: 16 / 18
# Makespan: 618.0, Total Distance: 154.0, Total Time: 3.4731
# R O S F Batch
0 0 26 0.0 0.0 -1
1 1 11 0.0 0.0 -1
2 2 23 0.0 0.0 -1
3 3 20 0.0 0.0 -1
4 4 24 0.0 0.0 -1
5 5 13 0.0 0.0 -1
6 6 15 0.0 0.0 -1
7 7 10 0.0 0.0 -1
8 8 14 0.0 0.0 -1
9 9 -1 0.0 0.0 -1
10 7 27 521.0 559.0 0
11 1 17 228.0 250.0 0
12 -1 -1 -1.0 -1.0 0
13 5 -1 242.0 270.0 0
14 8 16 107.0 142.0 0
15 6 -1 342.0 368.0 0
16 8 18 270.0 306.0 0
17 1 -1 423.0 454.0 0
18 8 22 400.0 423.0 0
19 -1 -1 -1.0 -1.0 0
20 3 25 347.0 377.0 0
21 4 -1 401.0 437.0 0
22 8 -1 488.0 521.0 0
23 2 -1 502.0 526.0 0
24 4 21 186.0 222.0 0
25 3 -1 377.0 401.0 0
26 0 -1 526.0 547.0 0
27 7 -1 598.0 618.0 0
